generators/2_2.param.solution
language ESSENCE' 1.0
$ Minion SolverNodes: 5
$ Minion SolverTotalTime: 0.003018
$ Minion SolverTimeOut: 0
$ Savile Row TotalTime: 0.291
letting actionFrom be [0, 0, 2, 2, 3, 2]
letting actionTo be [2, 2, 1, 3, 2, 1]
letting actionTypes be [1, 1, 2, 4, 7, 2]
letting pointers be [[0, 1, 2, 2, 2, 2, 2;int(0..6)], 
[0, 0, 0, 1, 1, 1, 2;int(0..6)];int(0..1)]
letting statePlaces be [[-1, 3, 2, 2, 2, 3, 3;int(0..6)], 
[-1, -1, -1, -1, 2, 3, 3;int(0..6)];int(2..3)]
